; Benchmark for LTL-sketching problem
(set-logic QF_UF)
(set-info :status unknown)
(declare-fun z_1_0 () Bool)
(declare-fun z_0_0 () Bool)
(declare-fun z_1_9 () Bool)
(declare-fun z_1_8 () Bool)
(declare-fun z_1_7 () Bool)
(declare-fun z_1_6 () Bool)
(declare-fun z_1_5 () Bool)
(declare-fun z_1_4 () Bool)
(declare-fun z_1_3 () Bool)
(declare-fun z_1_2 () Bool)
(declare-fun z_1_1 () Bool)
(declare-fun z_0_1 () Bool)
(declare-fun z_0_2 () Bool)
(declare-fun z_0_3 () Bool)
(declare-fun z_0_4 () Bool)
(declare-fun z_0_5 () Bool)
(declare-fun z_0_6 () Bool)
(declare-fun z_0_7 () Bool)
(declare-fun z_0_8 () Bool)
(declare-fun z_0_9 () Bool)
(declare-fun z_1_19 () Bool)
(declare-fun z_1_18 () Bool)
(declare-fun z_1_17 () Bool)
(declare-fun z_1_16 () Bool)
(declare-fun z_1_15 () Bool)
(declare-fun z_1_14 () Bool)
(declare-fun z_1_13 () Bool)
(declare-fun z_1_12 () Bool)
(declare-fun z_1_11 () Bool)
(declare-fun z_1_10 () Bool)
(declare-fun z_0_10 () Bool)
(declare-fun z_0_11 () Bool)
(declare-fun z_0_12 () Bool)
(declare-fun z_0_13 () Bool)
(declare-fun z_0_14 () Bool)
(declare-fun z_0_15 () Bool)
(declare-fun z_0_16 () Bool)
(declare-fun z_0_17 () Bool)
(declare-fun z_0_18 () Bool)
(declare-fun z_0_19 () Bool)
(declare-fun z_1_30 () Bool)
(declare-fun z_1_29 () Bool)
(declare-fun z_1_28 () Bool)
(declare-fun z_1_27 () Bool)
(declare-fun z_1_26 () Bool)
(declare-fun z_1_25 () Bool)
(declare-fun z_1_24 () Bool)
(declare-fun z_1_23 () Bool)
(declare-fun z_1_22 () Bool)
(declare-fun z_1_21 () Bool)
(declare-fun z_1_20 () Bool)
(declare-fun z_0_20 () Bool)
(declare-fun z_0_21 () Bool)
(declare-fun z_0_22 () Bool)
(declare-fun z_0_23 () Bool)
(declare-fun z_0_24 () Bool)
(declare-fun z_0_25 () Bool)
(declare-fun z_0_26 () Bool)
(declare-fun z_0_27 () Bool)
(declare-fun z_0_28 () Bool)
(declare-fun z_0_29 () Bool)
(declare-fun z_0_30 () Bool)
(declare-fun z_1_32 () Bool)
(declare-fun z_1_31 () Bool)
(declare-fun z_0_31 () Bool)
(declare-fun z_0_32 () Bool)
(declare-fun z_1_38 () Bool)
(declare-fun z_1_37 () Bool)
(declare-fun z_1_36 () Bool)
(declare-fun z_1_35 () Bool)
(declare-fun z_1_34 () Bool)
(declare-fun z_1_33 () Bool)
(declare-fun z_0_33 () Bool)
(declare-fun z_0_34 () Bool)
(declare-fun z_0_35 () Bool)
(declare-fun z_0_36 () Bool)
(declare-fun z_0_37 () Bool)
(declare-fun z_0_38 () Bool)
(declare-fun z_1_50 () Bool)
(declare-fun z_1_49 () Bool)
(declare-fun z_1_48 () Bool)
(declare-fun z_1_47 () Bool)
(declare-fun z_1_46 () Bool)
(declare-fun z_1_45 () Bool)
(declare-fun z_1_44 () Bool)
(declare-fun z_1_43 () Bool)
(declare-fun z_1_42 () Bool)
(declare-fun z_1_41 () Bool)
(declare-fun z_1_40 () Bool)
(declare-fun z_1_39 () Bool)
(declare-fun z_0_39 () Bool)
(declare-fun z_0_40 () Bool)
(declare-fun z_0_41 () Bool)
(declare-fun z_0_42 () Bool)
(declare-fun z_0_43 () Bool)
(declare-fun z_0_44 () Bool)
(declare-fun z_0_45 () Bool)
(declare-fun z_0_46 () Bool)
(declare-fun z_0_47 () Bool)
(declare-fun z_0_48 () Bool)
(declare-fun z_0_49 () Bool)
(declare-fun z_0_50 () Bool)
(declare-fun z_1_57 () Bool)
(declare-fun z_1_56 () Bool)
(declare-fun z_1_55 () Bool)
(declare-fun z_1_54 () Bool)
(declare-fun z_1_53 () Bool)
(declare-fun z_1_52 () Bool)
(declare-fun z_1_51 () Bool)
(declare-fun z_0_51 () Bool)
(declare-fun z_0_52 () Bool)
(declare-fun z_0_53 () Bool)
(declare-fun z_0_54 () Bool)
(declare-fun z_0_55 () Bool)
(declare-fun z_0_56 () Bool)
(declare-fun z_0_57 () Bool)
(declare-fun z_1_69 () Bool)
(declare-fun z_1_68 () Bool)
(declare-fun z_1_67 () Bool)
(declare-fun z_1_66 () Bool)
(declare-fun z_1_65 () Bool)
(declare-fun z_1_64 () Bool)
(declare-fun z_1_63 () Bool)
(declare-fun z_1_62 () Bool)
(declare-fun z_1_61 () Bool)
(declare-fun z_1_60 () Bool)
(declare-fun z_1_59 () Bool)
(declare-fun z_1_58 () Bool)
(declare-fun z_0_58 () Bool)
(declare-fun z_0_59 () Bool)
(declare-fun z_0_60 () Bool)
(declare-fun z_0_61 () Bool)
(declare-fun z_0_62 () Bool)
(declare-fun z_0_63 () Bool)
(declare-fun z_0_64 () Bool)
(declare-fun z_0_65 () Bool)
(declare-fun z_0_66 () Bool)
(declare-fun z_0_67 () Bool)
(declare-fun z_0_68 () Bool)
(declare-fun z_0_69 () Bool)
(declare-fun z_1_73 () Bool)
(declare-fun z_1_72 () Bool)
(declare-fun z_1_71 () Bool)
(declare-fun z_1_70 () Bool)
(declare-fun z_0_70 () Bool)
(declare-fun z_0_71 () Bool)
(declare-fun z_0_72 () Bool)
(declare-fun z_0_73 () Bool)
(declare-fun z_1_78 () Bool)
(declare-fun z_1_77 () Bool)
(declare-fun z_1_76 () Bool)
(declare-fun z_1_75 () Bool)
(declare-fun z_1_74 () Bool)
(declare-fun z_0_74 () Bool)
(declare-fun z_0_75 () Bool)
(declare-fun z_0_76 () Bool)
(declare-fun z_0_77 () Bool)
(declare-fun z_0_78 () Bool)
(declare-fun z_1_87 () Bool)
(declare-fun z_1_86 () Bool)
(declare-fun z_1_85 () Bool)
(declare-fun z_1_84 () Bool)
(declare-fun z_1_83 () Bool)
(declare-fun z_1_82 () Bool)
(declare-fun z_1_81 () Bool)
(declare-fun z_1_80 () Bool)
(declare-fun z_1_79 () Bool)
(declare-fun z_0_79 () Bool)
(declare-fun z_0_80 () Bool)
(declare-fun z_0_81 () Bool)
(declare-fun z_0_82 () Bool)
(declare-fun z_0_83 () Bool)
(declare-fun z_0_84 () Bool)
(declare-fun z_0_85 () Bool)
(declare-fun z_0_86 () Bool)
(declare-fun z_0_87 () Bool)
(declare-fun z_1_99 () Bool)
(declare-fun z_1_98 () Bool)
(declare-fun z_1_97 () Bool)
(declare-fun z_1_96 () Bool)
(declare-fun z_1_95 () Bool)
(declare-fun z_1_94 () Bool)
(declare-fun z_1_93 () Bool)
(declare-fun z_1_92 () Bool)
(declare-fun z_1_91 () Bool)
(declare-fun z_1_90 () Bool)
(declare-fun z_1_89 () Bool)
(declare-fun z_1_88 () Bool)
(declare-fun z_0_88 () Bool)
(declare-fun z_0_89 () Bool)
(declare-fun z_0_90 () Bool)
(declare-fun z_0_91 () Bool)
(declare-fun z_0_92 () Bool)
(declare-fun z_0_93 () Bool)
(declare-fun z_0_94 () Bool)
(declare-fun z_0_95 () Bool)
(declare-fun z_0_96 () Bool)
(declare-fun z_0_97 () Bool)
(declare-fun z_0_98 () Bool)
(declare-fun z_0_99 () Bool)
(declare-fun z_1_109 () Bool)
(declare-fun z_1_108 () Bool)
(declare-fun z_1_107 () Bool)
(declare-fun z_1_106 () Bool)
(declare-fun z_1_105 () Bool)
(declare-fun z_1_104 () Bool)
(declare-fun z_1_103 () Bool)
(declare-fun z_1_102 () Bool)
(declare-fun z_1_101 () Bool)
(declare-fun z_1_100 () Bool)
(declare-fun z_0_100 () Bool)
(declare-fun z_0_101 () Bool)
(declare-fun z_0_102 () Bool)
(declare-fun z_0_103 () Bool)
(declare-fun z_0_104 () Bool)
(declare-fun z_0_105 () Bool)
(declare-fun z_0_106 () Bool)
(declare-fun z_0_107 () Bool)
(declare-fun z_0_108 () Bool)
(declare-fun z_0_109 () Bool)
(declare-fun z_1_114 () Bool)
(declare-fun z_1_113 () Bool)
(declare-fun z_1_112 () Bool)
(declare-fun z_1_111 () Bool)
(declare-fun z_1_110 () Bool)
(declare-fun z_0_110 () Bool)
(declare-fun z_0_111 () Bool)
(declare-fun z_0_112 () Bool)
(declare-fun z_0_113 () Bool)
(declare-fun z_0_114 () Bool)
(declare-fun z_1_119 () Bool)
(declare-fun z_1_118 () Bool)
(declare-fun z_1_117 () Bool)
(declare-fun z_1_116 () Bool)
(declare-fun z_1_115 () Bool)
(declare-fun z_0_115 () Bool)
(declare-fun z_0_116 () Bool)
(declare-fun z_0_117 () Bool)
(declare-fun z_0_118 () Bool)
(declare-fun z_0_119 () Bool)
(declare-fun z_1_124 () Bool)
(declare-fun z_1_123 () Bool)
(declare-fun z_1_122 () Bool)
(declare-fun z_1_121 () Bool)
(declare-fun z_1_120 () Bool)
(declare-fun z_0_120 () Bool)
(declare-fun z_0_121 () Bool)
(declare-fun z_0_122 () Bool)
(declare-fun z_0_123 () Bool)
(declare-fun z_0_124 () Bool)
(declare-fun z_1_132 () Bool)
(declare-fun z_1_131 () Bool)
(declare-fun z_1_130 () Bool)
(declare-fun z_1_129 () Bool)
(declare-fun z_1_128 () Bool)
(declare-fun z_1_127 () Bool)
(declare-fun z_1_126 () Bool)
(declare-fun z_1_125 () Bool)
(declare-fun z_0_125 () Bool)
(declare-fun z_0_126 () Bool)
(declare-fun z_0_127 () Bool)
(declare-fun z_0_128 () Bool)
(declare-fun z_0_129 () Bool)
(declare-fun z_0_130 () Bool)
(declare-fun z_0_131 () Bool)
(declare-fun z_0_132 () Bool)
(declare-fun z_1_133 () Bool)
(declare-fun z_0_133 () Bool)
(declare-fun z_1_138 () Bool)
(declare-fun z_1_137 () Bool)
(declare-fun z_1_136 () Bool)
(declare-fun z_1_135 () Bool)
(declare-fun z_1_134 () Bool)
(declare-fun z_0_134 () Bool)
(declare-fun z_0_135 () Bool)
(declare-fun z_0_136 () Bool)
(declare-fun z_0_137 () Bool)
(declare-fun z_0_138 () Bool)
(declare-fun z_1_144 () Bool)
(declare-fun z_1_143 () Bool)
(declare-fun z_1_142 () Bool)
(declare-fun z_1_141 () Bool)
(declare-fun z_1_140 () Bool)
(declare-fun z_1_139 () Bool)
(declare-fun z_0_139 () Bool)
(declare-fun z_0_140 () Bool)
(declare-fun z_0_141 () Bool)
(declare-fun z_0_142 () Bool)
(declare-fun z_0_143 () Bool)
(declare-fun z_0_144 () Bool)
(declare-fun z_1_148 () Bool)
(declare-fun z_1_147 () Bool)
(declare-fun z_1_146 () Bool)
(declare-fun z_1_145 () Bool)
(declare-fun z_0_145 () Bool)
(declare-fun z_0_146 () Bool)
(declare-fun z_0_147 () Bool)
(declare-fun z_0_148 () Bool)
(declare-fun z_1_157 () Bool)
(declare-fun z_1_156 () Bool)
(declare-fun z_1_155 () Bool)
(declare-fun z_1_154 () Bool)
(declare-fun z_1_153 () Bool)
(declare-fun z_1_152 () Bool)
(declare-fun z_1_151 () Bool)
(declare-fun z_1_150 () Bool)
(declare-fun z_1_149 () Bool)
(declare-fun z_0_149 () Bool)
(declare-fun z_0_150 () Bool)
(declare-fun z_0_151 () Bool)
(declare-fun z_0_152 () Bool)
(declare-fun z_0_153 () Bool)
(declare-fun z_0_154 () Bool)
(declare-fun z_0_155 () Bool)
(declare-fun z_0_156 () Bool)
(declare-fun z_0_157 () Bool)
(declare-fun z_1_160 () Bool)
(declare-fun z_1_159 () Bool)
(declare-fun z_1_158 () Bool)
(declare-fun z_0_158 () Bool)
(declare-fun z_0_159 () Bool)
(declare-fun z_0_160 () Bool)
(declare-fun z_1_161 () Bool)
(declare-fun z_0_161 () Bool)
(declare-fun z_1_162 () Bool)
(declare-fun z_0_162 () Bool)
(declare-fun z_1_166 () Bool)
(declare-fun z_1_165 () Bool)
(declare-fun z_1_164 () Bool)
(declare-fun z_1_163 () Bool)
(declare-fun z_0_163 () Bool)
(declare-fun z_0_164 () Bool)
(declare-fun z_0_165 () Bool)
(declare-fun z_0_166 () Bool)
(declare-fun z_1_170 () Bool)
(declare-fun z_1_169 () Bool)
(declare-fun z_1_168 () Bool)
(declare-fun z_1_167 () Bool)
(declare-fun z_0_167 () Bool)
(declare-fun z_0_168 () Bool)
(declare-fun z_0_169 () Bool)
(declare-fun z_0_170 () Bool)
(declare-fun z_1_174 () Bool)
(declare-fun z_1_173 () Bool)
(declare-fun z_1_172 () Bool)
(declare-fun z_1_171 () Bool)
(declare-fun z_0_171 () Bool)
(declare-fun z_0_172 () Bool)
(declare-fun z_0_173 () Bool)
(declare-fun z_0_174 () Bool)
(declare-fun z_1_176 () Bool)
(declare-fun z_1_175 () Bool)
(declare-fun z_0_175 () Bool)
(declare-fun z_0_176 () Bool)
(declare-fun z_1_179 () Bool)
(declare-fun z_1_178 () Bool)
(declare-fun z_1_177 () Bool)
(declare-fun z_0_177 () Bool)
(declare-fun z_0_178 () Bool)
(declare-fun z_0_179 () Bool)
(declare-fun z_1_183 () Bool)
(declare-fun z_1_182 () Bool)
(declare-fun z_1_181 () Bool)
(declare-fun z_1_180 () Bool)
(declare-fun z_0_180 () Bool)
(declare-fun z_0_181 () Bool)
(declare-fun z_0_182 () Bool)
(declare-fun z_0_183 () Bool)
(declare-fun z_1_185 () Bool)
(declare-fun z_1_184 () Bool)
(declare-fun z_0_184 () Bool)
(declare-fun z_0_185 () Bool)
(declare-fun z_1_194 () Bool)
(declare-fun z_1_193 () Bool)
(declare-fun z_1_192 () Bool)
(declare-fun z_1_191 () Bool)
(declare-fun z_1_190 () Bool)
(declare-fun z_1_189 () Bool)
(declare-fun z_1_188 () Bool)
(declare-fun z_1_187 () Bool)
(declare-fun z_1_186 () Bool)
(declare-fun z_0_186 () Bool)
(declare-fun z_0_187 () Bool)
(declare-fun z_0_188 () Bool)
(declare-fun z_0_189 () Bool)
(declare-fun z_0_190 () Bool)
(declare-fun z_0_191 () Bool)
(declare-fun z_0_192 () Bool)
(declare-fun z_0_193 () Bool)
(declare-fun z_0_194 () Bool)
(declare-fun z_1_205 () Bool)
(declare-fun z_1_204 () Bool)
(declare-fun z_1_203 () Bool)
(declare-fun z_1_202 () Bool)
(declare-fun z_1_201 () Bool)
(declare-fun z_1_200 () Bool)
(declare-fun z_1_199 () Bool)
(declare-fun z_1_198 () Bool)
(declare-fun z_1_197 () Bool)
(declare-fun z_1_196 () Bool)
(declare-fun z_1_195 () Bool)
(declare-fun z_0_195 () Bool)
(declare-fun z_0_196 () Bool)
(declare-fun z_0_197 () Bool)
(declare-fun z_0_198 () Bool)
(declare-fun z_0_199 () Bool)
(declare-fun z_0_200 () Bool)
(declare-fun z_0_201 () Bool)
(declare-fun z_0_202 () Bool)
(declare-fun z_0_203 () Bool)
(declare-fun z_0_204 () Bool)
(declare-fun z_0_205 () Bool)
(declare-fun z_1_210 () Bool)
(declare-fun z_1_209 () Bool)
(declare-fun z_1_208 () Bool)
(declare-fun z_1_207 () Bool)
(declare-fun z_1_206 () Bool)
(declare-fun z_0_206 () Bool)
(declare-fun z_0_207 () Bool)
(declare-fun z_0_208 () Bool)
(declare-fun z_0_209 () Bool)
(declare-fun z_0_210 () Bool)
(declare-fun z_1_211 () Bool)
(declare-fun z_0_211 () Bool)
(declare-fun z_1_212 () Bool)
(declare-fun z_0_212 () Bool)
(declare-fun z_1_218 () Bool)
(declare-fun z_1_217 () Bool)
(declare-fun z_1_216 () Bool)
(declare-fun z_1_215 () Bool)
(declare-fun z_1_214 () Bool)
(declare-fun z_1_213 () Bool)
(declare-fun z_0_213 () Bool)
(declare-fun z_0_214 () Bool)
(declare-fun z_0_215 () Bool)
(declare-fun z_0_216 () Bool)
(declare-fun z_0_217 () Bool)
(declare-fun z_0_218 () Bool)
(declare-fun z_1_222 () Bool)
(declare-fun z_1_221 () Bool)
(declare-fun z_1_220 () Bool)
(declare-fun z_1_219 () Bool)
(declare-fun z_0_219 () Bool)
(declare-fun z_0_220 () Bool)
(declare-fun z_0_221 () Bool)
(declare-fun z_0_222 () Bool)
(declare-fun z_1_224 () Bool)
(declare-fun z_1_223 () Bool)
(declare-fun z_0_223 () Bool)
(declare-fun z_0_224 () Bool)
(declare-fun z_1_226 () Bool)
(declare-fun z_1_225 () Bool)
(declare-fun z_0_225 () Bool)
(declare-fun z_0_226 () Bool)
(declare-fun z_1_227 () Bool)
(declare-fun z_0_227 () Bool)
(declare-fun z_1_228 () Bool)
(declare-fun z_0_228 () Bool)
(assert
 (= z_0_0 (and z_1_0)))
(assert
 (let (($x38 (and z_1_1 z_1_2 z_1_3 z_1_4 z_1_5 z_1_6 z_1_7 z_1_8 z_1_9)))
 (= z_0_1 $x38)))
(assert
 (= z_0_2 (and z_1_2 z_1_3 z_1_4 z_1_5 z_1_6 z_1_7 z_1_8 z_1_9)))
(assert
 (= z_0_3 (and z_1_3 z_1_4 z_1_5 z_1_6 z_1_7 z_1_8 z_1_9)))
(assert
 (= z_0_4 (and z_1_4 z_1_5 z_1_6 z_1_7 z_1_8 z_1_9)))
(assert
 (= z_0_5 (and z_1_5 z_1_6 z_1_7 z_1_8 z_1_9)))
(assert
 (= z_0_6 (and z_1_6 z_1_7 z_1_8 z_1_9 z_1_5)))
(assert
 (= z_0_7 (and z_1_7 z_1_8 z_1_9 z_1_5 z_1_6)))
(assert
 (= z_0_8 (and z_1_8 z_1_9 z_1_5 z_1_6 z_1_7)))
(assert
 (= z_0_9 (and z_1_9 z_1_5 z_1_6 z_1_7 z_1_8)))
(assert
 (let (($x75 (and z_1_10 z_1_11 z_1_12 z_1_13 z_1_14 z_1_15 z_1_16 z_1_17 z_1_18 z_1_19)))
 (= z_0_10 $x75)))
(assert
 (let (($x78 (and z_1_11 z_1_12 z_1_13 z_1_14 z_1_15 z_1_16 z_1_17 z_1_18 z_1_19)))
 (= z_0_11 $x78)))
(assert
 (let (($x81 (and z_1_12 z_1_13 z_1_14 z_1_15 z_1_16 z_1_17 z_1_18 z_1_19)))
 (= z_0_12 $x81)))
(assert
 (= z_0_13 (and z_1_13 z_1_14 z_1_15 z_1_16 z_1_17 z_1_18 z_1_19)))
(assert
 (= z_0_14 (and z_1_14 z_1_15 z_1_16 z_1_17 z_1_18 z_1_19)))
(assert
 (= z_0_15 (and z_1_15 z_1_16 z_1_17 z_1_18 z_1_19)))
(assert
 (= z_0_16 (and z_1_16 z_1_17 z_1_18 z_1_19)))
(assert
 (= z_0_17 (and z_1_17 z_1_18 z_1_19 z_1_16)))
(assert
 (= z_0_18 (and z_1_18 z_1_19 z_1_16 z_1_17)))
(assert
 (= z_0_19 (and z_1_19 z_1_16 z_1_17 z_1_18)))
(assert
 (let (($x116 (and z_1_20 z_1_21 z_1_22 z_1_23 z_1_24 z_1_25 z_1_26 z_1_27 z_1_28 z_1_29 z_1_30)))
 (= z_0_20 $x116)))
(assert
 (let (($x119 (and z_1_21 z_1_22 z_1_23 z_1_24 z_1_25 z_1_26 z_1_27 z_1_28 z_1_29 z_1_30)))
 (= z_0_21 $x119)))
(assert
 (let (($x122 (and z_1_22 z_1_23 z_1_24 z_1_25 z_1_26 z_1_27 z_1_28 z_1_29 z_1_30)))
 (= z_0_22 $x122)))
(assert
 (let (($x125 (and z_1_23 z_1_24 z_1_25 z_1_26 z_1_27 z_1_28 z_1_29 z_1_30)))
 (= z_0_23 $x125)))
(assert
 (= z_0_24 (and z_1_24 z_1_25 z_1_26 z_1_27 z_1_28 z_1_29 z_1_30)))
(assert
 (= z_0_25 (and z_1_25 z_1_26 z_1_27 z_1_28 z_1_29 z_1_30)))
(assert
 (= z_0_26 (and z_1_26 z_1_27 z_1_28 z_1_29 z_1_30 z_1_25)))
(assert
 (= z_0_27 (and z_1_27 z_1_28 z_1_29 z_1_30 z_1_25 z_1_26)))
(assert
 (= z_0_28 (and z_1_28 z_1_29 z_1_30 z_1_25 z_1_26 z_1_27)))
(assert
 (= z_0_29 (and z_1_29 z_1_30 z_1_25 z_1_26 z_1_27 z_1_28)))
(assert
 (= z_0_30 (and z_1_30 z_1_25 z_1_26 z_1_27 z_1_28 z_1_29)))
(assert
 (let (($x151 (and z_1_31 z_1_32 z_1_3 z_1_4 z_1_5 z_1_6 z_1_7 z_1_8 z_1_9)))
 (= z_0_31 $x151)))
(assert
 (= z_0_32 (and z_1_32 z_1_3 z_1_4 z_1_5 z_1_6 z_1_7 z_1_8 z_1_9)))
(assert
 (= z_0_33 (and z_1_33 z_1_34 z_1_35 z_1_36 z_1_37 z_1_38)))
(assert
 (= z_0_34 (and z_1_34 z_1_35 z_1_36 z_1_37 z_1_38)))
(assert
 (= z_0_35 (and z_1_35 z_1_36 z_1_37 z_1_38 z_1_34)))
(assert
 (= z_0_36 (and z_1_36 z_1_37 z_1_38 z_1_34 z_1_35)))
(assert
 (= z_0_37 (and z_1_37 z_1_38 z_1_34 z_1_35 z_1_36)))
(assert
 (= z_0_38 (and z_1_38 z_1_34 z_1_35 z_1_36 z_1_37)))
(assert
 (let (($x193 (and z_1_39 z_1_40 z_1_41 z_1_42 z_1_43 z_1_44 z_1_45 z_1_46 z_1_47 z_1_48 z_1_49 z_1_50)))
 (= z_0_39 $x193)))
(assert
 (let (($x196 (and z_1_40 z_1_41 z_1_42 z_1_43 z_1_44 z_1_45 z_1_46 z_1_47 z_1_48 z_1_49 z_1_50)))
 (= z_0_40 $x196)))
(assert
 (let (($x199 (and z_1_41 z_1_42 z_1_43 z_1_44 z_1_45 z_1_46 z_1_47 z_1_48 z_1_49 z_1_50)))
 (= z_0_41 $x199)))
(assert
 (let (($x202 (and z_1_42 z_1_43 z_1_44 z_1_45 z_1_46 z_1_47 z_1_48 z_1_49 z_1_50)))
 (= z_0_42 $x202)))
(assert
 (let (($x205 (and z_1_43 z_1_44 z_1_45 z_1_46 z_1_47 z_1_48 z_1_49 z_1_50)))
 (= z_0_43 $x205)))
(assert
 (= z_0_44 (and z_1_44 z_1_45 z_1_46 z_1_47 z_1_48 z_1_49 z_1_50)))
(assert
 (= z_0_45 (and z_1_45 z_1_46 z_1_47 z_1_48 z_1_49 z_1_50)))
(assert
 (= z_0_46 (and z_1_46 z_1_47 z_1_48 z_1_49 z_1_50 z_1_45)))
(assert
 (= z_0_47 (and z_1_47 z_1_48 z_1_49 z_1_50 z_1_45 z_1_46)))
(assert
 (= z_0_48 (and z_1_48 z_1_49 z_1_50 z_1_45 z_1_46 z_1_47)))
(assert
 (= z_0_49 (and z_1_49 z_1_50 z_1_45 z_1_46 z_1_47 z_1_48)))
(assert
 (= z_0_50 (and z_1_50 z_1_45 z_1_46 z_1_47 z_1_48 z_1_49)))
(assert
 (= z_0_51 (and z_1_51 z_1_52 z_1_53 z_1_54 z_1_55 z_1_56 z_1_57)))
(assert
 (= z_0_52 (and z_1_52 z_1_53 z_1_54 z_1_55 z_1_56 z_1_57)))
(assert
 (= z_0_53 (and z_1_53 z_1_54 z_1_55 z_1_56 z_1_57)))
(assert
 (= z_0_54 (and z_1_54 z_1_55 z_1_56 z_1_57)))
(assert
 (= z_0_55 (and z_1_55 z_1_56 z_1_57)))
(assert
 (= z_0_56 (and z_1_56 z_1_57)))
(assert
 (= z_0_57 (and z_1_57 z_1_56)))
(assert
 (let (($x269 (and z_1_58 z_1_59 z_1_60 z_1_61 z_1_62 z_1_63 z_1_64 z_1_65 z_1_66 z_1_67 z_1_68 z_1_69)))
 (= z_0_58 $x269)))
(assert
 (let (($x272 (and z_1_59 z_1_60 z_1_61 z_1_62 z_1_63 z_1_64 z_1_65 z_1_66 z_1_67 z_1_68 z_1_69)))
 (= z_0_59 $x272)))
(assert
 (let (($x275 (and z_1_60 z_1_61 z_1_62 z_1_63 z_1_64 z_1_65 z_1_66 z_1_67 z_1_68 z_1_69)))
 (= z_0_60 $x275)))
(assert
 (let (($x278 (and z_1_61 z_1_62 z_1_63 z_1_64 z_1_65 z_1_66 z_1_67 z_1_68 z_1_69)))
 (= z_0_61 $x278)))
(assert
 (let (($x281 (and z_1_62 z_1_63 z_1_64 z_1_65 z_1_66 z_1_67 z_1_68 z_1_69)))
 (= z_0_62 $x281)))
(assert
 (= z_0_63 (and z_1_63 z_1_64 z_1_65 z_1_66 z_1_67 z_1_68 z_1_69)))
(assert
 (= z_0_64 (and z_1_64 z_1_65 z_1_66 z_1_67 z_1_68 z_1_69)))
(assert
 (= z_0_65 (and z_1_65 z_1_66 z_1_67 z_1_68 z_1_69 z_1_64)))
(assert
 (= z_0_66 (and z_1_66 z_1_67 z_1_68 z_1_69 z_1_64 z_1_65)))
(assert
 (= z_0_67 (and z_1_67 z_1_68 z_1_69 z_1_64 z_1_65 z_1_66)))
(assert
 (= z_0_68 (and z_1_68 z_1_69 z_1_64 z_1_65 z_1_66 z_1_67)))
(assert
 (= z_0_69 (and z_1_69 z_1_64 z_1_65 z_1_66 z_1_67 z_1_68)))
(assert
 (let (($x309 (and z_1_70 z_1_71 z_1_72 z_1_73 z_1_17 z_1_18 z_1_19 z_1_16)))
 (= z_0_70 $x309)))
(assert
 (= z_0_71 (and z_1_71 z_1_72 z_1_73 z_1_17 z_1_18 z_1_19 z_1_16)))
(assert
 (= z_0_72 (and z_1_72 z_1_73 z_1_17 z_1_18 z_1_19 z_1_16)))
(assert
 (= z_0_73 (and z_1_73 z_1_17 z_1_18 z_1_19 z_1_16)))
(assert
 (let (($x326 (and z_1_74 z_1_75 z_1_76 z_1_77 z_1_78 z_1_66 z_1_67 z_1_68 z_1_69 z_1_64 z_1_65)))
 (= z_0_74 $x326)))
(assert
 (let (($x329 (and z_1_75 z_1_76 z_1_77 z_1_78 z_1_66 z_1_67 z_1_68 z_1_69 z_1_64 z_1_65)))
 (= z_0_75 $x329)))
(assert
 (let (($x332 (and z_1_76 z_1_77 z_1_78 z_1_66 z_1_67 z_1_68 z_1_69 z_1_64 z_1_65)))
 (= z_0_76 $x332)))
(assert
 (let (($x335 (and z_1_77 z_1_78 z_1_66 z_1_67 z_1_68 z_1_69 z_1_64 z_1_65)))
 (= z_0_77 $x335)))
(assert
 (= z_0_78 (and z_1_78 z_1_66 z_1_67 z_1_68 z_1_69 z_1_64 z_1_65)))
(assert
 (let (($x350 (and z_1_79 z_1_80 z_1_81 z_1_82 z_1_83 z_1_84 z_1_85 z_1_86 z_1_87)))
 (= z_0_79 $x350)))
(assert
 (let (($x353 (and z_1_80 z_1_81 z_1_82 z_1_83 z_1_84 z_1_85 z_1_86 z_1_87)))
 (= z_0_80 $x353)))
(assert
 (= z_0_81 (and z_1_81 z_1_82 z_1_83 z_1_84 z_1_85 z_1_86 z_1_87)))
(assert
 (= z_0_82 (and z_1_82 z_1_83 z_1_84 z_1_85 z_1_86 z_1_87)))
(assert
 (= z_0_83 (and z_1_83 z_1_84 z_1_85 z_1_86 z_1_87)))
(assert
 (= z_0_84 (and z_1_84 z_1_85 z_1_86 z_1_87 z_1_83)))
(assert
 (= z_0_85 (and z_1_85 z_1_86 z_1_87 z_1_83 z_1_84)))
(assert
 (= z_0_86 (and z_1_86 z_1_87 z_1_83 z_1_84 z_1_85)))
(assert
 (= z_0_87 (and z_1_87 z_1_83 z_1_84 z_1_85 z_1_86)))
(assert
 (let (($x389 (and z_1_88 z_1_89 z_1_90 z_1_91 z_1_92 z_1_93 z_1_94 z_1_95 z_1_96 z_1_97 z_1_98 z_1_99)))
 (= z_0_88 $x389)))
(assert
 (let (($x392 (and z_1_89 z_1_90 z_1_91 z_1_92 z_1_93 z_1_94 z_1_95 z_1_96 z_1_97 z_1_98 z_1_99)))
 (= z_0_89 $x392)))
(assert
 (let (($x395 (and z_1_90 z_1_91 z_1_92 z_1_93 z_1_94 z_1_95 z_1_96 z_1_97 z_1_98 z_1_99)))
 (= z_0_90 $x395)))
(assert
 (let (($x398 (and z_1_91 z_1_92 z_1_93 z_1_94 z_1_95 z_1_96 z_1_97 z_1_98 z_1_99)))
 (= z_0_91 $x398)))
(assert
 (let (($x401 (and z_1_92 z_1_93 z_1_94 z_1_95 z_1_96 z_1_97 z_1_98 z_1_99)))
 (= z_0_92 $x401)))
(assert
 (= z_0_93 (and z_1_93 z_1_94 z_1_95 z_1_96 z_1_97 z_1_98 z_1_99)))
(assert
 (= z_0_94 (and z_1_94 z_1_95 z_1_96 z_1_97 z_1_98 z_1_99)))
(assert
 (= z_0_95 (and z_1_95 z_1_96 z_1_97 z_1_98 z_1_99 z_1_94)))
(assert
 (= z_0_96 (and z_1_96 z_1_97 z_1_98 z_1_99 z_1_94 z_1_95)))
(assert
 (= z_0_97 (and z_1_97 z_1_98 z_1_99 z_1_94 z_1_95 z_1_96)))
(assert
 (= z_0_98 (and z_1_98 z_1_99 z_1_94 z_1_95 z_1_96 z_1_97)))
(assert
 (= z_0_99 (and z_1_99 z_1_94 z_1_95 z_1_96 z_1_97 z_1_98)))
(assert
 (let (($x435 (and z_1_100 z_1_101 z_1_102 z_1_103 z_1_104 z_1_105 z_1_106 z_1_107 z_1_108 z_1_109)))
 (= z_0_100 $x435)))
(assert
 (let (($x438 (and z_1_101 z_1_102 z_1_103 z_1_104 z_1_105 z_1_106 z_1_107 z_1_108 z_1_109)))
 (= z_0_101 $x438)))
(assert
 (let (($x441 (and z_1_102 z_1_103 z_1_104 z_1_105 z_1_106 z_1_107 z_1_108 z_1_109)))
 (= z_0_102 $x441)))
(assert
 (let (($x444 (and z_1_103 z_1_104 z_1_105 z_1_106 z_1_107 z_1_108 z_1_109)))
 (= z_0_103 $x444)))
(assert
 (= z_0_104 (and z_1_104 z_1_105 z_1_106 z_1_107 z_1_108 z_1_109)))
(assert
 (= z_0_105 (and z_1_105 z_1_106 z_1_107 z_1_108 z_1_109)))
(assert
 (= z_0_106 (and z_1_106 z_1_107 z_1_108 z_1_109)))
(assert
 (= z_0_107 (and z_1_107 z_1_108 z_1_109 z_1_106)))
(assert
 (= z_0_108 (and z_1_108 z_1_109 z_1_106 z_1_107)))
(assert
 (= z_0_109 (and z_1_109 z_1_106 z_1_107 z_1_108)))
(assert
 (let (($x470 (and z_1_110 z_1_111 z_1_112 z_1_113 z_1_114 z_1_19 z_1_16 z_1_17 z_1_18)))
 (= z_0_110 $x470)))
(assert
 (let (($x473 (and z_1_111 z_1_112 z_1_113 z_1_114 z_1_19 z_1_16 z_1_17 z_1_18)))
 (= z_0_111 $x473)))
(assert
 (= z_0_112 (and z_1_112 z_1_113 z_1_114 z_1_19 z_1_16 z_1_17 z_1_18)))
(assert
 (= z_0_113 (and z_1_113 z_1_114 z_1_19 z_1_16 z_1_17 z_1_18)))
(assert
 (= z_0_114 (and z_1_114 z_1_19 z_1_16 z_1_17 z_1_18)))
(assert
 (= z_0_115 (and z_1_115 z_1_116 z_1_117 z_1_118 z_1_119)))
(assert
 (= z_0_116 (and z_1_116 z_1_117 z_1_118 z_1_119)))
(assert
 (= z_0_117 (and z_1_117 z_1_118 z_1_119)))
(assert
 (= z_0_118 (and z_1_118 z_1_119)))
(assert
 (= z_0_119 (and z_1_119)))
(assert
 (let (($x511 (and z_1_120 z_1_121 z_1_122 z_1_123 z_1_124 z_1_28 z_1_29 z_1_30 z_1_25 z_1_26 z_1_27)))
 (= z_0_120 $x511)))
(assert
 (let (($x514 (and z_1_121 z_1_122 z_1_123 z_1_124 z_1_28 z_1_29 z_1_30 z_1_25 z_1_26 z_1_27)))
 (= z_0_121 $x514)))
(assert
 (let (($x517 (and z_1_122 z_1_123 z_1_124 z_1_28 z_1_29 z_1_30 z_1_25 z_1_26 z_1_27)))
 (= z_0_122 $x517)))
(assert
 (let (($x520 (and z_1_123 z_1_124 z_1_28 z_1_29 z_1_30 z_1_25 z_1_26 z_1_27)))
 (= z_0_123 $x520)))
(assert
 (= z_0_124 (and z_1_124 z_1_28 z_1_29 z_1_30 z_1_25 z_1_26 z_1_27)))
(assert
 (let (($x534 (and z_1_125 z_1_126 z_1_127 z_1_128 z_1_129 z_1_130 z_1_131 z_1_132)))
 (= z_0_125 $x534)))
(assert
 (let (($x537 (and z_1_126 z_1_127 z_1_128 z_1_129 z_1_130 z_1_131 z_1_132)))
 (= z_0_126 $x537)))
(assert
 (= z_0_127 (and z_1_127 z_1_128 z_1_129 z_1_130 z_1_131 z_1_132)))
(assert
 (= z_0_128 (and z_1_128 z_1_129 z_1_130 z_1_131 z_1_132)))
(assert
 (= z_0_129 (and z_1_129 z_1_130 z_1_131 z_1_132 z_1_128)))
(assert
 (= z_0_130 (and z_1_130 z_1_131 z_1_132 z_1_128 z_1_129)))
(assert
 (= z_0_131 (and z_1_131 z_1_132 z_1_128 z_1_129 z_1_130)))
(assert
 (= z_0_132 (and z_1_132 z_1_128 z_1_129 z_1_130 z_1_131)))
(assert
 (= z_0_133 (and z_1_133 z_1_67 z_1_68 z_1_69 z_1_64 z_1_65 z_1_66)))
(assert
 (let (($x567 (and z_1_134 z_1_135 z_1_136 z_1_137 z_1_138 z_1_73 z_1_17 z_1_18 z_1_19 z_1_16)))
 (= z_0_134 $x567)))
(assert
 (let (($x570 (and z_1_135 z_1_136 z_1_137 z_1_138 z_1_73 z_1_17 z_1_18 z_1_19 z_1_16)))
 (= z_0_135 $x570)))
(assert
 (let (($x573 (and z_1_136 z_1_137 z_1_138 z_1_73 z_1_17 z_1_18 z_1_19 z_1_16)))
 (= z_0_136 $x573)))
(assert
 (= z_0_137 (and z_1_137 z_1_138 z_1_73 z_1_17 z_1_18 z_1_19 z_1_16)))
(assert
 (= z_0_138 (and z_1_138 z_1_73 z_1_17 z_1_18 z_1_19 z_1_16)))
(assert
 (let (($x588 (and z_1_139 z_1_140 z_1_141 z_1_142 z_1_143 z_1_144 z_1_18 z_1_19 z_1_16 z_1_17)))
 (= z_0_139 $x588)))
(assert
 (let (($x591 (and z_1_140 z_1_141 z_1_142 z_1_143 z_1_144 z_1_18 z_1_19 z_1_16 z_1_17)))
 (= z_0_140 $x591)))
(assert
 (let (($x594 (and z_1_141 z_1_142 z_1_143 z_1_144 z_1_18 z_1_19 z_1_16 z_1_17)))
 (= z_0_141 $x594)))
(assert
 (= z_0_142 (and z_1_142 z_1_143 z_1_144 z_1_18 z_1_19 z_1_16 z_1_17)))
(assert
 (= z_0_143 (and z_1_143 z_1_144 z_1_18 z_1_19 z_1_16 z_1_17)))
(assert
 (= z_0_144 (and z_1_144 z_1_18 z_1_19 z_1_16 z_1_17)))
(assert
 (let (($x610 (and z_1_145 z_1_146 z_1_147 z_1_148 z_1_107 z_1_108 z_1_109 z_1_106)))
 (= z_0_145 $x610)))
(assert
 (let (($x613 (and z_1_146 z_1_147 z_1_148 z_1_107 z_1_108 z_1_109 z_1_106)))
 (= z_0_146 $x613)))
(assert
 (= z_0_147 (and z_1_147 z_1_148 z_1_107 z_1_108 z_1_109 z_1_106)))
(assert
 (= z_0_148 (and z_1_148 z_1_107 z_1_108 z_1_109 z_1_106)))
(assert
 (let (($x631 (and z_1_149 z_1_150 z_1_151 z_1_152 z_1_153 z_1_154 z_1_155 z_1_156 z_1_157 z_1_108 z_1_109 z_1_106 z_1_107)))
 (= z_0_149 $x631)))
(assert
 (let (($x634 (and z_1_150 z_1_151 z_1_152 z_1_153 z_1_154 z_1_155 z_1_156 z_1_157 z_1_108 z_1_109 z_1_106 z_1_107)))
 (= z_0_150 $x634)))
(assert
 (let (($x637 (and z_1_151 z_1_152 z_1_153 z_1_154 z_1_155 z_1_156 z_1_157 z_1_108 z_1_109 z_1_106 z_1_107)))
 (= z_0_151 $x637)))
(assert
 (let (($x640 (and z_1_152 z_1_153 z_1_154 z_1_155 z_1_156 z_1_157 z_1_108 z_1_109 z_1_106 z_1_107)))
 (= z_0_152 $x640)))
(assert
 (let (($x643 (and z_1_153 z_1_154 z_1_155 z_1_156 z_1_157 z_1_108 z_1_109 z_1_106 z_1_107)))
 (= z_0_153 $x643)))
(assert
 (let (($x646 (and z_1_154 z_1_155 z_1_156 z_1_157 z_1_108 z_1_109 z_1_106 z_1_107)))
 (= z_0_154 $x646)))
(assert
 (let (($x649 (and z_1_155 z_1_156 z_1_157 z_1_108 z_1_109 z_1_106 z_1_107)))
 (= z_0_155 $x649)))
(assert
 (= z_0_156 (and z_1_156 z_1_157 z_1_108 z_1_109 z_1_106 z_1_107)))
(assert
 (= z_0_157 (and z_1_157 z_1_108 z_1_109 z_1_106 z_1_107)))
(assert
 (let (($x661 (and z_1_158 z_1_159 z_1_160 z_1_144 z_1_18 z_1_19 z_1_16 z_1_17)))
 (= z_0_158 $x661)))
(assert
 (= z_0_159 (and z_1_159 z_1_160 z_1_144 z_1_18 z_1_19 z_1_16 z_1_17)))
(assert
 (= z_0_160 (and z_1_160 z_1_144 z_1_18 z_1_19 z_1_16 z_1_17)))
(assert
 (= z_0_161 (and z_1_161 z_1_114 z_1_19 z_1_16 z_1_17 z_1_18)))
(assert
 (let (($x675 (and z_1_162 z_1_13 z_1_14 z_1_15 z_1_16 z_1_17 z_1_18 z_1_19)))
 (= z_0_162 $x675)))
(assert
 (= z_0_163 (and z_1_163 z_1_164 z_1_165 z_1_166 z_1_0)))
(assert
 (= z_0_164 (and z_1_164 z_1_165 z_1_166 z_1_0)))
(assert
 (= z_0_165 (and z_1_165 z_1_166 z_1_0)))
(assert
 (= z_0_166 (and z_1_166 z_1_0)))
(assert
 (= z_0_167 (and z_1_167 z_1_168 z_1_169 z_1_170 z_1_166 z_1_0)))
(assert
 (= z_0_168 (and z_1_168 z_1_169 z_1_170 z_1_166 z_1_0)))
(assert
 (= z_0_169 (and z_1_169 z_1_170 z_1_166 z_1_0)))
(assert
 (= z_0_170 (and z_1_170 z_1_166 z_1_0)))
(assert
 (let (($x714 (and z_1_171 z_1_172 z_1_173 z_1_174 z_1_15 z_1_16 z_1_17 z_1_18 z_1_19)))
 (= z_0_171 $x714)))
(assert
 (let (($x717 (and z_1_172 z_1_173 z_1_174 z_1_15 z_1_16 z_1_17 z_1_18 z_1_19)))
 (= z_0_172 $x717)))
(assert
 (= z_0_173 (and z_1_173 z_1_174 z_1_15 z_1_16 z_1_17 z_1_18 z_1_19)))
(assert
 (= z_0_174 (and z_1_174 z_1_15 z_1_16 z_1_17 z_1_18 z_1_19)))
(assert
 (let (($x728 (and z_1_175 z_1_176 z_1_33 z_1_34 z_1_35 z_1_36 z_1_37 z_1_38)))
 (= z_0_175 $x728)))
(assert
 (= z_0_176 (and z_1_176 z_1_33 z_1_34 z_1_35 z_1_36 z_1_37 z_1_38)))
(assert
 (let (($x737 (and z_1_177 z_1_178 z_1_179 z_1_30 z_1_25 z_1_26 z_1_27 z_1_28 z_1_29)))
 (= z_0_177 $x737)))
(assert
 (let (($x740 (and z_1_178 z_1_179 z_1_30 z_1_25 z_1_26 z_1_27 z_1_28 z_1_29)))
 (= z_0_178 $x740)))
(assert
 (= z_0_179 (and z_1_179 z_1_30 z_1_25 z_1_26 z_1_27 z_1_28 z_1_29)))
(assert
 (let (($x750 (and z_1_180 z_1_181 z_1_182 z_1_183 z_1_87 z_1_83 z_1_84 z_1_85 z_1_86)))
 (= z_0_180 $x750)))
(assert
 (let (($x753 (and z_1_181 z_1_182 z_1_183 z_1_87 z_1_83 z_1_84 z_1_85 z_1_86)))
 (= z_0_181 $x753)))
(assert
 (= z_0_182 (and z_1_182 z_1_183 z_1_87 z_1_83 z_1_84 z_1_85 z_1_86)))
(assert
 (= z_0_183 (and z_1_183 z_1_87 z_1_83 z_1_84 z_1_85 z_1_86)))
(assert
 (let (($x764 (and z_1_184 z_1_185 z_1_104 z_1_105 z_1_106 z_1_107 z_1_108 z_1_109)))
 (= z_0_184 $x764)))
(assert
 (let (($x767 (and z_1_185 z_1_104 z_1_105 z_1_106 z_1_107 z_1_108 z_1_109)))
 (= z_0_185 $x767)))
(assert
 (let (($x779 (and z_1_186 z_1_187 z_1_188 z_1_189 z_1_190 z_1_191 z_1_192 z_1_193 z_1_194)))
 (= z_0_186 $x779)))
(assert
 (let (($x782 (and z_1_187 z_1_188 z_1_189 z_1_190 z_1_191 z_1_192 z_1_193 z_1_194)))
 (= z_0_187 $x782)))
(assert
 (let (($x785 (and z_1_188 z_1_189 z_1_190 z_1_191 z_1_192 z_1_193 z_1_194)))
 (= z_0_188 $x785)))
(assert
 (= z_0_189 (and z_1_189 z_1_190 z_1_191 z_1_192 z_1_193 z_1_194)))
(assert
 (= z_0_190 (and z_1_190 z_1_191 z_1_192 z_1_193 z_1_194)))
(assert
 (= z_0_191 (and z_1_191 z_1_192 z_1_193 z_1_194)))
(assert
 (= z_0_192 (and z_1_192 z_1_193 z_1_194 z_1_191)))
(assert
 (= z_0_193 (and z_1_193 z_1_194 z_1_191 z_1_192)))
(assert
 (= z_0_194 (and z_1_194 z_1_191 z_1_192 z_1_193)))
(assert
 (let (($x817 (and z_1_195 z_1_196 z_1_197 z_1_198 z_1_199 z_1_200 z_1_201 z_1_202 z_1_203 z_1_204 z_1_205 z_1_56 z_1_57)))
 (= z_0_195 $x817)))
(assert
 (let (($x820 (and z_1_196 z_1_197 z_1_198 z_1_199 z_1_200 z_1_201 z_1_202 z_1_203 z_1_204 z_1_205 z_1_56 z_1_57)))
 (= z_0_196 $x820)))
(assert
 (let (($x823 (and z_1_197 z_1_198 z_1_199 z_1_200 z_1_201 z_1_202 z_1_203 z_1_204 z_1_205 z_1_56 z_1_57)))
 (= z_0_197 $x823)))
(assert
 (let (($x826 (and z_1_198 z_1_199 z_1_200 z_1_201 z_1_202 z_1_203 z_1_204 z_1_205 z_1_56 z_1_57)))
 (= z_0_198 $x826)))
(assert
 (let (($x829 (and z_1_199 z_1_200 z_1_201 z_1_202 z_1_203 z_1_204 z_1_205 z_1_56 z_1_57)))
 (= z_0_199 $x829)))
(assert
 (let (($x832 (and z_1_200 z_1_201 z_1_202 z_1_203 z_1_204 z_1_205 z_1_56 z_1_57)))
 (= z_0_200 $x832)))
(assert
 (let (($x835 (and z_1_201 z_1_202 z_1_203 z_1_204 z_1_205 z_1_56 z_1_57)))
 (= z_0_201 $x835)))
(assert
 (= z_0_202 (and z_1_202 z_1_203 z_1_204 z_1_205 z_1_56 z_1_57)))
(assert
 (= z_0_203 (and z_1_203 z_1_204 z_1_205 z_1_56 z_1_57)))
(assert
 (= z_0_204 (and z_1_204 z_1_205 z_1_56 z_1_57)))
(assert
 (= z_0_205 (and z_1_205 z_1_56 z_1_57)))
(assert
 (let (($x855 (and z_1_206 z_1_207 z_1_208 z_1_209 z_1_210 z_1_194 z_1_191 z_1_192 z_1_193)))
 (= z_0_206 $x855)))
(assert
 (let (($x858 (and z_1_207 z_1_208 z_1_209 z_1_210 z_1_194 z_1_191 z_1_192 z_1_193)))
 (= z_0_207 $x858)))
(assert
 (let (($x861 (and z_1_208 z_1_209 z_1_210 z_1_194 z_1_191 z_1_192 z_1_193)))
 (= z_0_208 $x861)))
(assert
 (= z_0_209 (and z_1_209 z_1_210 z_1_194 z_1_191 z_1_192 z_1_193)))
(assert
 (= z_0_210 (and z_1_210 z_1_194 z_1_191 z_1_192 z_1_193)))
(assert
 (= z_0_211 (and z_1_211 z_1_165 z_1_166 z_1_0)))
(assert
 (= z_0_212 (and z_1_212 z_1_143 z_1_144 z_1_18 z_1_19 z_1_16 z_1_17)))
(assert
 (let (($x884 (and z_1_213 z_1_214 z_1_215 z_1_216 z_1_217 z_1_218 z_1_156 z_1_157 z_1_108 z_1_109 z_1_106 z_1_107)))
 (= z_0_213 $x884)))
(assert
 (let (($x887 (and z_1_214 z_1_215 z_1_216 z_1_217 z_1_218 z_1_156 z_1_157 z_1_108 z_1_109 z_1_106 z_1_107)))
 (= z_0_214 $x887)))
(assert
 (let (($x890 (and z_1_215 z_1_216 z_1_217 z_1_218 z_1_156 z_1_157 z_1_108 z_1_109 z_1_106 z_1_107)))
 (= z_0_215 $x890)))
(assert
 (let (($x893 (and z_1_216 z_1_217 z_1_218 z_1_156 z_1_157 z_1_108 z_1_109 z_1_106 z_1_107)))
 (= z_0_216 $x893)))
(assert
 (let (($x896 (and z_1_217 z_1_218 z_1_156 z_1_157 z_1_108 z_1_109 z_1_106 z_1_107)))
 (= z_0_217 $x896)))
(assert
 (let (($x899 (and z_1_218 z_1_156 z_1_157 z_1_108 z_1_109 z_1_106 z_1_107)))
 (= z_0_218 $x899)))
(assert
 (let (($x906 (and z_1_219 z_1_220 z_1_221 z_1_222 z_1_8 z_1_9 z_1_5 z_1_6 z_1_7)))
 (= z_0_219 $x906)))
(assert
 (let (($x909 (and z_1_220 z_1_221 z_1_222 z_1_8 z_1_9 z_1_5 z_1_6 z_1_7)))
 (= z_0_220 $x909)))
(assert
 (= z_0_221 (and z_1_221 z_1_222 z_1_8 z_1_9 z_1_5 z_1_6 z_1_7)))
(assert
 (= z_0_222 (and z_1_222 z_1_8 z_1_9 z_1_5 z_1_6 z_1_7)))
(assert
 (let (($x920 (and z_1_223 z_1_224 z_1_151 z_1_152 z_1_153 z_1_154 z_1_155 z_1_156 z_1_157 z_1_108 z_1_109 z_1_106 z_1_107)))
 (= z_0_223 $x920)))
(assert
 (let (($x923 (and z_1_224 z_1_151 z_1_152 z_1_153 z_1_154 z_1_155 z_1_156 z_1_157 z_1_108 z_1_109 z_1_106 z_1_107)))
 (= z_0_224 $x923)))
(assert
 (let (($x928 (and z_1_225 z_1_226 z_1_70 z_1_71 z_1_72 z_1_73 z_1_17 z_1_18 z_1_19 z_1_16)))
 (= z_0_225 $x928)))
(assert
 (let (($x931 (and z_1_226 z_1_70 z_1_71 z_1_72 z_1_73 z_1_17 z_1_18 z_1_19 z_1_16)))
 (= z_0_226 $x931)))
(assert
 (let (($x935 (and z_1_227 z_1_177 z_1_178 z_1_179 z_1_30 z_1_25 z_1_26 z_1_27 z_1_28 z_1_29)))
 (= z_0_227 $x935)))
(assert
 (= z_0_228 (and z_1_228 z_1_38 z_1_34 z_1_35 z_1_36 z_1_37)))
(assert
 z_0_0)
(assert
 (not z_0_1))
(assert
 (not z_0_5))
(assert
 (not z_0_10))
(assert
 (not z_0_20))
(assert
 (not z_0_31))
(assert
 (not z_0_33))
(assert
 (not z_0_39))
(assert
 (not z_0_51))
(assert
 (not z_0_53))
(assert
 (not z_0_56))
(assert
 (not z_0_58))
(assert
 (not z_0_70))
(assert
 (not z_0_74))
(assert
 (not z_0_79))
(assert
 (not z_0_88))
(assert
 (not z_0_100))
(assert
 (not z_0_108))
(assert
 (not z_0_110))
(assert
 (not z_0_115))
(assert
 (not z_0_120))
(assert
 (not z_0_125))
(assert
 (not z_0_133))
(assert
 (not z_0_134))
(assert
 (not z_0_139))
(assert
 (not z_0_145))
(assert
 (not z_0_149))
(assert
 (not z_0_152))
(assert
 (not z_0_158))
(assert
 (not z_0_161))
(assert
 (not z_0_162))
(assert
 (not z_0_163))
(assert
 (not z_0_167))
(assert
 (not z_0_171))
(assert
 (not z_0_175))
(assert
 (not z_0_177))
(assert
 (not z_0_180))
(assert
 (not z_0_184))
(assert
 (not z_0_186))
(assert
 (not z_0_194))
(assert
 (not z_0_195))
(assert
 (not z_0_206))
(assert
 (not z_0_211))
(assert
 (not z_0_212))
(assert
 (not z_0_213))
(assert
 (not z_0_219))
(assert
 (not z_0_223))
(assert
 (not z_0_225))
(assert
 (not z_0_227))
(assert
 (not z_0_228))
(check-sat)

